c "random instance"
p edges 150 4527
e 1 7
e 1 10
e 1 11
e 1 14
e 1 18
e 1 20
e 1 27
e 1 28
e 1 32
e 1 37
e 1 39
e 1 42
e 1 43
e 1 45
e 1 46
e 1 48
e 1 50
e 1 52
e 1 56
e 1 59
e 1 67
e 1 68
e 1 73
e 1 74
e 1 75
e 1 78
e 1 82
e 1 85
e 1 90
e 1 92
e 1 94
e 1 95
e 1 97
e 1 100
e 1 105
e 1 106
e 1 107
e 1 108
e 1 109
e 1 114
e 1 115
e 1 118
e 1 119
e 1 120
e 1 131
e 1 133
e 1 135
e 1 137
e 1 140
e 1 142
e 1 143
e 1 144
e 1 145
e 1 146
e 1 147
e 1 149
e 2 3
e 2 4
e 2 10
e 2 14
e 2 16
e 2 18
e 2 19
e 2 21
e 2 23
e 2 24
e 2 27
e 2 29
e 2 30
e 2 31
e 2 33
e 2 36
e 2 38
e 2 40
e 2 44
e 2 45
e 2 47
e 2 50
e 2 51
e 2 56
e 2 64
e 2 70
e 2 72
e 2 73
e 2 74
e 2 78
e 2 81
e 2 85
e 2 89
e 2 90
e 2 91
e 2 92
e 2 93
e 2 96
e 2 100
e 2 106
e 2 109
e 2 110
e 2 120
e 2 125
e 2 129
e 2 140
e 2 142
e 2 143
e 2 147
e 2 148
e 2 150
e 3 14
e 3 17
e 3 18
e 3 23
e 3 25
e 3 26
e 3 30
e 3 35
e 3 40
e 3 45
e 3 48
e 3 49
e 3 50
e 3 52
e 3 53
e 3 56
e 3 58
e 3 60
e 3 73
e 3 75
e 3 76
e 3 79
e 3 81
e 3 82
e 3 86
e 3 91
e 3 93
e 3 94
e 3 95
e 3 99
e 3 101
e 3 104
e 3 106
e 3 112
e 3 113
e 3 114
e 3 115
e 3 116
e 3 117
e 3 118
e 3 120
e 3 124
e 3 130
e 3 131
e 3 134
e 3 135
e 3 137
e 3 141
e 3 142
e 3 144
e 3 145
e 3 150
e 4 5
e 4 6
e 4 7
e 4 11
e 4 12
e 4 13
e 4 17
e 4 18
e 4 19
e 4 23
e 4 25
e 4 27
e 4 33
e 4 34
e 4 37
e 4 38
e 4 39
e 4 40
e 4 41
e 4 43
e 4 44
e 4 47
e 4 48
e 4 51
e 4 53
e 4 56
e 4 59
e 4 60
e 4 62
e 4 63
e 4 81
e 4 82
e 4 83
e 4 85
e 4 86
e 4 91
e 4 93
e 4 97
e 4 100
e 4 104
e 4 107
e 4 113
e 4 114
e 4 117
e 4 123
e 4 124
e 4 126
e 4 128
e 4 129
e 4 133
e 4 134
e 4 135
e 4 136
e 4 138
e 4 139
e 4 141
e 4 142
e 4 145
e 4 149
e 5 6
e 5 7
e 5 9
e 5 10
e 5 14
e 5 18
e 5 19
e 5 23
e 5 24
e 5 25
e 5 26
e 5 28
e 5 29
e 5 31
e 5 39
e 5 41
e 5 44
e 5 48
e 5 50
e 5 51
e 5 52
e 5 54
e 5 58
e 5 62
e 5 66
e 5 67
e 5 68
e 5 70
e 5 71
e 5 73
e 5 79
e 5 81
e 5 84
e 5 85
e 5 90
e 5 91
e 5 93
e 5 99
e 5 101
e 5 102
e 5 104
e 5 105
e 5 106
e 5 107
e 5 108
e 5 109
e 5 110
e 5 112
e 5 117
e 5 118
e 5 119
e 5 122
e 5 124
e 5 137
e 5 140
e 5 144
e 5 146
e 5 149
e 6 11
e 6 13
e 6 18
e 6 24
e 6 27
e 6 29
e 6 30
e 6 31
e 6 34
e 6 38
e 6 47
e 6 50
e 6 52
e 6 53
e 6 60
e 6 64
e 6 65
e 6 66
e 6 72
e 6 76
e 6 77
e 6 82
e 6 89
e 6 92
e 6 95
e 6 102
e 6 103
e 6 105
e 6 107
e 6 108
e 6 110
e 6 112
e 6 113
e 6 114
e 6 117
e 6 120
e 6 123
e 6 124
e 6 131
e 6 132
e 6 134
e 6 135
e 6 136
e 6 140
e 6 141
e 6 142
e 6 145
e 6 147
e 7 18
e 7 19
e 7 23
e 7 26
e 7 28
e 7 30
e 7 31
e 7 33
e 7 35
e 7 36
e 7 38
e 7 43
e 7 44
e 7 45
e 7 48
e 7 49
e 7 51
e 7 52
e 7 57
e 7 63
e 7 65
e 7 69
e 7 70
e 7 71
e 7 72
e 7 75
e 7 78
e 7 83
e 7 90
e 7 94
e 7 96
e 7 97
e 7 99
e 7 101
e 7 103
e 7 112
e 7 114
e 7 117
e 7 119
e 7 123
e 7 125
e 7 126
e 7 130
e 7 137
e 7 139
e 7 144
e 7 147
e 7 148
e 7 149
e 8 10
e 8 16
e 8 21
e 8 25
e 8 27
e 8 30
e 8 32
e 8 34
e 8 35
e 8 37
e 8 38
e 8 39
e 8 40
e 8 43
e 8 46
e 8 47
e 8 53
e 8 62
e 8 64
e 8 65
e 8 73
e 8 77
e 8 78
e 8 81
e 8 83
e 8 86
e 8 88
e 8 90
e 8 93
e 8 94
e 8 95
e 8 98
e 8 100
e 8 101
e 8 103
e 8 106
e 8 107
e 8 109
e 8 111
e 8 112
e 8 116
e 8 117
e 8 122
e 8 124
e 8 126
e 8 129
e 8 134
e 8 140
e 8 141
e 8 142
e 8 145
e 9 13
e 9 15
e 9 17
e 9 18
e 9 20
e 9 33
e 9 38
e 9 41
e 9 42
e 9 43
e 9 51
e 9 52
e 9 56
e 9 59
e 9 60
e 9 65
e 9 66
e 9 68
e 9 74
e 9 75
e 9 77
e 9 78
e 9 82
e 9 87
e 9 89
e 9 90
e 9 93
e 9 97
e 9 98
e 9 99
e 9 102
e 9 103
e 9 104
e 9 105
e 9 110
e 9 112
e 9 120
e 9 121
e 9 122
e 9 123
e 9 125
e 9 127
e 9 128
e 9 131
e 9 132
e 9 133
e 9 139
e 9 142
e 9 145
e 9 149
e 10 14
e 10 15
e 10 18
e 10 19
e 10 22
e 10 23
e 10 24
e 10 25
e 10 27
e 10 28
e 10 29
e 10 30
e 10 31
e 10 34
e 10 39
e 10 40
e 10 43
e 10 44
e 10 45
e 10 47
e 10 49
e 10 50
e 10 54
e 10 56
e 10 63
e 10 64
e 10 66
e 10 72
e 10 73
e 10 74
e 10 75
e 10 79
e 10 81
e 10 82
e 10 83
e 10 84
e 10 87
e 10 88
e 10 90
e 10 92
e 10 98
e 10 99
e 10 101
e 10 102
e 10 105
e 10 110
e 10 115
e 10 117
e 10 118
e 10 121
e 10 124
e 10 125
e 10 127
e 10 128
e 10 129
e 10 130
e 10 131
e 10 133
e 10 134
e 10 138
e 10 139
e 10 140
e 10 146
e 10 147
e 10 150
e 11 12
e 11 13
e 11 14
e 11 16
e 11 20
e 11 21
e 11 22
e 11 23
e 11 26
e 11 28
e 11 30
e 11 31
e 11 32
e 11 34
e 11 35
e 11 38
e 11 43
e 11 44
e 11 45
e 11 47
e 11 48
e 11 49
e 11 51
e 11 52
e 11 53
e 11 56
e 11 58
e 11 59
e 11 61
e 11 64
e 11 65
e 11 70
e 11 76
e 11 77
e 11 79
e 11 81
e 11 82
e 11 90
e 11 91
e 11 98
e 11 99
e 11 107
e 11 108
e 11 110
e 11 111
e 11 112
e 11 117
e 11 120
e 11 124
e 11 126
e 11 127
e 11 129
e 11 132
e 11 133
e 11 139
e 11 142
e 11 147
e 11 149
e 12 14
e 12 15
e 12 16
e 12 20
e 12 21
e 12 22
e 12 23
e 12 24
e 12 28
e 12 29
e 12 30
e 12 31
e 12 33
e 12 35
e 12 36
e 12 43
e 12 48
e 12 49
e 12 50
e 12 51
e 12 52
e 12 56
e 12 58
e 12 59
e 12 60
e 12 61
e 12 63
e 12 64
e 12 65
e 12 67
e 12 69
e 12 71
e 12 77
e 12 80
e 12 82
e 12 97
e 12 100
e 12 106
e 12 109
e 12 110
e 12 111
e 12 112
e 12 114
e 12 115
e 12 121
e 12 125
e 12 126
e 12 128
e 12 129
e 12 130
e 12 133
e 12 134
e 12 135
e 12 137
e 12 139
e 12 140
e 12 141
e 12 147
e 12 148
e 12 149
e 13 15
e 13 16
e 13 20
e 13 21
e 13 24
e 13 25
e 13 26
e 13 30
e 13 33
e 13 35
e 13 36
e 13 37
e 13 44
e 13 46
e 13 49
e 13 50
e 13 54
e 13 55
e 13 56
e 13 57
e 13 59
e 13 65
e 13 69
e 13 71
e 13 72
e 13 75
e 13 79
e 13 84
e 13 90
e 13 93
e 13 94
e 13 95
e 13 98
e 13 99
e 13 103
e 13 104
e 13 107
e 13 110
e 13 111
e 13 115
e 13 117
e 13 120
e 13 126
e 13 130
e 13 135
e 13 142
e 13 143
e 13 145
e 13 146
e 13 149
e 14 20
e 14 22
e 14 23
e 14 24
e 14 29
e 14 30
e 14 31
e 14 32
e 14 33
e 14 36
e 14 37
e 14 40
e 14 43
e 14 44
e 14 45
e 14 47
e 14 48
e 14 49
e 14 51
e 14 54
e 14 59
e 14 61
e 14 62
e 14 67
e 14 68
e 14 70
e 14 73
e 14 74
e 14 75
e 14 81
e 14 91
e 14 93
e 14 97
e 14 104
e 14 105
e 14 110
e 14 111
e 14 114
e 14 116
e 14 118
e 14 120
e 14 121
e 14 122
e 14 127
e 14 128
e 14 130
e 14 131
e 14 133
e 14 134
e 14 136
e 14 137
e 14 139
e 14 141
e 14 143
e 14 147
e 14 148
e 15 16
e 15 19
e 15 21
e 15 22
e 15 23
e 15 24
e 15 28
e 15 29
e 15 30
e 15 34
e 15 36
e 15 38
e 15 40
e 15 41
e 15 45
e 15 48
e 15 51
e 15 52
e 15 53
e 15 55
e 15 56
e 15 57
e 15 60
e 15 62
e 15 64
e 15 66
e 15 70
e 15 72
e 15 73
e 15 74
e 15 76
e 15 79
e 15 80
e 15 83
e 15 85
e 15 87
e 15 89
e 15 93
e 15 94
e 15 98
e 15 99
e 15 103
e 15 104
e 15 105
e 15 107
e 15 108
e 15 115
e 15 116
e 15 119
e 15 120
e 15 124
e 15 131
e 15 132
e 15 134
e 15 137
e 15 138
e 15 140
e 15 141
e 15 142
e 15 143
e 15 149
e 16 17
e 16 21
e 16 23
e 16 24
e 16 31
e 16 34
e 16 37
e 16 39
e 16 40
e 16 41
e 16 50
e 16 54
e 16 58
e 16 61
e 16 62
e 16 64
e 16 65
e 16 66
e 16 67
e 16 68
e 16 70
e 16 76
e 16 77
e 16 78
e 16 80
e 16 83
e 16 84
e 16 86
e 16 87
e 16 88
e 16 89
e 16 92
e 16 94
e 16 95
e 16 97
e 16 107
e 16 108
e 16 112
e 16 113
e 16 115
e 16 117
e 16 122
e 16 124
e 16 126
e 16 140
e 16 141
e 16 144
e 16 147
e 16 148
e 17 18
e 17 19
e 17 20
e 17 22
e 17 25
e 17 26
e 17 27
e 17 30
e 17 32
e 17 33
e 17 39
e 17 43
e 17 46
e 17 48
e 17 50
e 17 54
e 17 57
e 17 59
e 17 61
e 17 62
e 17 70
e 17 71
e 17 76
e 17 77
e 17 81
e 17 82
e 17 89
e 17 93
e 17 94
e 17 98
e 17 103
e 17 106
e 17 109
e 17 110
e 17 111
e 17 116
e 17 122
e 17 123
e 17 128
e 17 129
e 17 131
e 17 135
e 17 136
e 17 137
e 17 138
e 17 140
e 17 141
e 17 144
e 17 147
e 17 150
e 18 19
e 18 21
e 18 23
e 18 25
e 18 27
e 18 31
e 18 35
e 18 36
e 18 37
e 18 38
e 18 41
e 18 42
e 18 47
e 18 53
e 18 54
e 18 56
e 18 62
e 18 63
e 18 66
e 18 69
e 18 71
e 18 74
e 18 75
e 18 80
e 18 82
e 18 85
e 18 88
e 18 90
e 18 92
e 18 93
e 18 96
e 18 99
e 18 101
e 18 103
e 18 106
e 18 107
e 18 108
e 18 109
e 18 110
e 18 118
e 18 124
e 18 127
e 18 133
e 18 137
e 18 140
e 18 141
e 18 143
e 18 144
e 18 147
e 18 148
e 18 150
e 19 23
e 19 24
e 19 25
e 19 26
e 19 29
e 19 34
e 19 35
e 19 37
e 19 45
e 19 46
e 19 47
e 19 48
e 19 56
e 19 60
e 19 70
e 19 71
e 19 77
e 19 80
e 19 84
e 19 96
e 19 97
e 19 103
e 19 107
e 19 113
e 19 114
e 19 116
e 19 117
e 19 120
e 19 123
e 19 125
e 19 126
e 19 127
e 19 129
e 19 130
e 19 136
e 19 137
e 19 138
e 19 139
e 19 140
e 19 147
e 19 149
e 20 23
e 20 28
e 20 29
e 20 31
e 20 33
e 20 35
e 20 37
e 20 41
e 20 45
e 20 50
e 20 52
e 20 53
e 20 54
e 20 56
e 20 57
e 20 58
e 20 59
e 20 61
e 20 64
e 20 67
e 20 68
e 20 69
e 20 77
e 20 83
e 20 84
e 20 86
e 20 87
e 20 88
e 20 92
e 20 93
e 20 96
e 20 100
e 20 103
e 20 106
e 20 109
e 20 110
e 20 112
e 20 115
e 20 117
e 20 118
e 20 121
e 20 123
e 20 129
e 20 130
e 20 131
e 20 132
e 20 134
e 20 138
e 20 139
e 20 140
e 20 142
e 20 145
e 20 148
e 20 149
e 21 23
e 21 26
e 21 27
e 21 32
e 21 34
e 21 35
e 21 41
e 21 42
e 21 43
e 21 45
e 21 47
e 21 49
e 21 50
e 21 53
e 21 54
e 21 58
e 21 60
e 21 68
e 21 69
e 21 70
e 21 73
e 21 74
e 21 80
e 21 83
e 21 96
e 21 99
e 21 106
e 21 108
e 21 109
e 21 112
e 21 113
e 21 116
e 21 118
e 21 122
e 21 124
e 21 126
e 21 127
e 21 128
e 21 129
e 21 130
e 21 135
e 21 136
e 21 137
e 21 143
e 21 144
e 21 145
e 21 148
e 22 25
e 22 29
e 22 33
e 22 36
e 22 37
e 22 45
e 22 48
e 22 49
e 22 50
e 22 52
e 22 55
e 22 56
e 22 57
e 22 59
e 22 62
e 22 66
e 22 76
e 22 77
e 22 78
e 22 80
e 22 82
e 22 83
e 22 84
e 22 86
e 22 87
e 22 88
e 22 90
e 22 92
e 22 96
e 22 100
e 22 101
e 22 102
e 22 105
e 22 106
e 22 107
e 22 108
e 22 109
e 22 111
e 22 113
e 22 114
e 22 121
e 22 122
e 22 123
e 22 125
e 22 128
e 22 129
e 22 131
e 22 133
e 22 134
e 22 139
e 22 141
e 22 142
e 22 145
e 22 149
e 23 24
e 23 26
e 23 28
e 23 31
e 23 32
e 23 33
e 23 35
e 23 36
e 23 37
e 23 38
e 23 44
e 23 45
e 23 47
e 23 48
e 23 50
e 23 52
e 23 55
e 23 56
e 23 57
e 23 59
e 23 60
e 23 64
e 23 65
e 23 66
e 23 67
e 23 73
e 23 75
e 23 78
e 23 82
e 23 85
e 23 91
e 23 92
e 23 93
e 23 100
e 23 102
e 23 103
e 23 105
e 23 107
e 23 110
e 23 111
e 23 118
e 23 119
e 23 120
e 23 125
e 23 128
e 23 131
e 23 135
e 23 137
e 23 141
e 23 146
e 23 149
e 24 25
e 24 27
e 24 28
e 24 31
e 24 33
e 24 34
e 24 35
e 24 36
e 24 37
e 24 38
e 24 43
e 24 48
e 24 50
e 24 52
e 24 53
e 24 54
e 24 57
e 24 61
e 24 62
e 24 64
e 24 65
e 24 66
e 24 67
e 24 69
e 24 70
e 24 71
e 24 73
e 24 77
e 24 79
e 24 81
e 24 82
e 24 83
e 24 89
e 24 90
e 24 94
e 24 95
e 24 97
e 24 100
e 24 101
e 24 102
e 24 105
e 24 111
e 24 113
e 24 114
e 24 115
e 24 116
e 24 119
e 24 122
e 24 125
e 24 128
e 24 129
e 24 134
e 24 137
e 24 139
e 24 142
e 24 143
e 24 144
e 24 145
e 25 31
e 25 34
e 25 35
e 25 41
e 25 43
e 25 44
e 25 46
e 25 54
e 25 56
e 25 57
e 25 58
e 25 59
e 25 60
e 25 64
e 25 69
e 25 72
e 25 73
e 25 76
e 25 77
e 25 78
e 25 81
e 25 83
e 25 85
e 25 86
e 25 88
e 25 90
e 25 94
e 25 95
e 25 96
e 25 97
e 25 99
e 25 100
e 25 101
e 25 103
e 25 105
e 25 106
e 25 112
e 25 113
e 25 115
e 25 118
e 25 119
e 25 120
e 25 122
e 25 124
e 25 127
e 25 133
e 25 138
e 25 142
e 25 143
e 25 149
e 26 28
e 26 29
e 26 30
e 26 34
e 26 35
e 26 38
e 26 40
e 26 41
e 26 46
e 26 47
e 26 48
e 26 49
e 26 51
e 26 53
e 26 59
e 26 60
e 26 61
e 26 63
e 26 64
e 26 68
e 26 72
e 26 74
e 26 78
e 26 80
e 26 81
e 26 82
e 26 87
e 26 88
e 26 89
e 26 97
e 26 99
e 26 103
e 26 104
e 26 107
e 26 110
e 26 112
e 26 113
e 26 115
e 26 118
e 26 121
e 26 128
e 26 129
e 26 130
e 26 132
e 26 136
e 26 138
e 26 142
e 26 144
e 26 145
e 26 147
e 26 150
e 27 28
e 27 29
e 27 30
e 27 31
e 27 32
e 27 34
e 27 41
e 27 42
e 27 43
e 27 44
e 27 45
e 27 46
e 27 48
e 27 53
e 27 62
e 27 65
e 27 66
e 27 68
e 27 70
e 27 79
e 27 81
e 27 86
e 27 87
e 27 90
e 27 92
e 27 96
e 27 98
e 27 99
e 27 101
e 27 107
e 27 114
e 27 119
e 27 124
e 27 126
e 27 130
e 27 131
e 27 134
e 27 135
e 27 136
e 27 137
e 27 138
e 27 141
e 27 142
e 27 143
e 27 145
e 27 147
e 28 32
e 28 35
e 28 37
e 28 41
e 28 42
e 28 43
e 28 46
e 28 51
e 28 54
e 28 57
e 28 59
e 28 61
e 28 65
e 28 67
e 28 70
e 28 72
e 28 74
e 28 79
e 28 80
e 28 82
e 28 83
e 28 87
e 28 88
e 28 89
e 28 90
e 28 92
e 28 96
e 28 97
e 28 99
e 28 100
e 28 101
e 28 104
e 28 105
e 28 106
e 28 107
e 28 112
e 28 113
e 28 116
e 28 118
e 28 119
e 28 120
e 28 122
e 28 124
e 28 125
e 28 126
e 28 132
e 28 137
e 28 138
e 28 139
e 28 140
e 28 141
e 28 142
e 28 143
e 28 144
e 28 145
e 28 147
e 28 149
e 29 31
e 29 34
e 29 36
e 29 37
e 29 40
e 29 42
e 29 44
e 29 48
e 29 50
e 29 53
e 29 56
e 29 59
e 29 63
e 29 64
e 29 66
e 29 75
e 29 77
e 29 78
e 29 80
e 29 81
e 29 82
e 29 83
e 29 87
e 29 96
e 29 97
e 29 99
e 29 101
e 29 102
e 29 105
e 29 109
e 29 111
e 29 115
e 29 116
e 29 118
e 29 120
e 29 121
e 29 124
e 29 126
e 29 127
e 29 135
e 29 137
e 29 138
e 29 140
e 29 143
e 29 146
e 29 149
e 30 32
e 30 35
e 30 36
e 30 38
e 30 39
e 30 40
e 30 47
e 30 53
e 30 54
e 30 58
e 30 61
e 30 72
e 30 74
e 30 79
e 30 80
e 30 87
e 30 89
e 30 90
e 30 93
e 30 94
e 30 97
e 30 101
e 30 102
e 30 103
e 30 108
e 30 111
e 30 117
e 30 122
e 30 125
e 30 127
e 30 128
e 30 129
e 30 132
e 30 133
e 30 134
e 30 137
e 30 138
e 30 140
e 30 143
e 30 144
e 30 146
e 30 147
e 30 148
e 31 32
e 31 36
e 31 37
e 31 39
e 31 40
e 31 44
e 31 46
e 31 51
e 31 53
e 31 55
e 31 57
e 31 58
e 31 59
e 31 66
e 31 67
e 31 68
e 31 69
e 31 70
e 31 73
e 31 74
e 31 75
e 31 76
e 31 77
e 31 78
e 31 81
e 31 84
e 31 88
e 31 94
e 31 98
e 31 99
e 31 100
e 31 101
e 31 102
e 31 105
e 31 112
e 31 114
e 31 117
e 31 120
e 31 121
e 31 123
e 31 125
e 31 127
e 31 130
e 31 132
e 31 134
e 31 135
e 31 138
e 31 139
e 31 144
e 31 147
e 31 149
e 31 150
e 32 33
e 32 34
e 32 40
e 32 43
e 32 45
e 32 46
e 32 47
e 32 49
e 32 55
e 32 57
e 32 59
e 32 63
e 32 67
e 32 68
e 32 71
e 32 74
e 32 77
e 32 78
e 32 81
e 32 82
e 32 85
e 32 86
e 32 88
e 32 89
e 32 96
e 32 99
e 32 100
e 32 104
e 32 105
e 32 111
e 32 113
e 32 118
e 32 119
e 32 120
e 32 121
e 32 123
e 32 124
e 32 126
e 32 130
e 32 131
e 32 132
e 32 137
e 32 139
e 32 140
e 32 141
e 32 143
e 32 144
e 32 147
e 32 148
e 33 34
e 33 37
e 33 38
e 33 41
e 33 45
e 33 48
e 33 52
e 33 58
e 33 59
e 33 60
e 33 62
e 33 65
e 33 70
e 33 73
e 33 74
e 33 76
e 33 78
e 33 81
e 33 82
e 33 84
e 33 86
e 33 87
e 33 89
e 33 90
e 33 91
e 33 93
e 33 96
e 33 98
e 33 99
e 33 100
e 33 101
e 33 102
e 33 105
e 33 107
e 33 108
e 33 110
e 33 111
e 33 112
e 33 114
e 33 116
e 33 117
e 33 118
e 33 121
e 33 123
e 33 125
e 33 126
e 33 129
e 33 130
e 33 131
e 33 132
e 33 133
e 33 134
e 33 137
e 33 140
e 33 144
e 33 145
e 33 150
e 34 38
e 34 39
e 34 40
e 34 42
e 34 44
e 34 46
e 34 50
e 34 52
e 34 56
e 34 58
e 34 63
e 34 68
e 34 69
e 34 73
e 34 76
e 34 85
e 34 87
e 34 93
e 34 95
e 34 98
e 34 99
e 34 101
e 34 103
e 34 104
e 34 106
e 34 110
e 34 111
e 34 112
e 34 116
e 34 117
e 34 121
e 34 122
e 34 125
e 34 126
e 34 135
e 34 139
e 34 143
e 34 144
e 34 145
e 34 147
e 34 148
e 34 149
e 34 150
e 35 38
e 35 43
e 35 44
e 35 46
e 35 47
e 35 48
e 35 49
e 35 50
e 35 54
e 35 55
e 35 56
e 35 57
e 35 62
e 35 65
e 35 67
e 35 68
e 35 71
e 35 75
e 35 78
e 35 82
e 35 86
e 35 87
e 35 88
e 35 89
e 35 91
e 35 92
e 35 94
e 35 98
e 35 100
e 35 103
e 35 107
e 35 108
e 35 110
e 35 112
e 35 113
e 35 116
e 35 117
e 35 119
e 35 124
e 35 126
e 35 127
e 35 128
e 35 138
e 35 140
e 35 143
e 35 145
e 35 150
e 36 37
e 36 38
e 36 39
e 36 40
e 36 41
e 36 43
e 36 44
e 36 45
e 36 46
e 36 48
e 36 49
e 36 52
e 36 53
e 36 54
e 36 55
e 36 59
e 36 61
e 36 62
e 36 70
e 36 72
e 36 73
e 36 74
e 36 75
e 36 79
e 36 85
e 36 87
e 36 88
e 36 89
e 36 96
e 36 98
e 36 99
e 36 100
e 36 102
e 36 107
e 36 109
e 36 119
e 36 120
e 36 123
e 36 125
e 36 126
e 36 127
e 36 130
e 36 132
e 36 137
e 36 139
e 36 142
e 36 145
e 36 148
e 36 150
e 37 39
e 37 42
e 37 45
e 37 46
e 37 51
e 37 53
e 37 57
e 37 60
e 37 62
e 37 63
e 37 66
e 37 67
e 37 71
e 37 72
e 37 73
e 37 74
e 37 75
e 37 77
e 37 80
e 37 81
e 37 85
e 37 86
e 37 91
e 37 92
e 37 94
e 37 95
e 37 96
e 37 99
e 37 100
e 37 101
e 37 104
e 37 105
e 37 107
e 37 110
e 37 111
e 37 115
e 37 119
e 37 122
e 37 123
e 37 126
e 37 129
e 37 131
e 37 134
e 37 140
e 37 142
e 37 143
e 37 144
e 37 145
e 37 146
e 37 148
e 37 149
e 37 150
e 38 41
e 38 43
e 38 44
e 38 45
e 38 50
e 38 55
e 38 56
e 38 58
e 38 63
e 38 66
e 38 67
e 38 71
e 38 76
e 38 77
e 38 79
e 38 84
e 38 85
e 38 86
e 38 87
e 38 88
e 38 89
e 38 90
e 38 97
e 38 98
e 38 100
e 38 101
e 38 103
e 38 104
e 38 107
e 38 109
e 38 110
e 38 113
e 38 114
e 38 115
e 38 117
e 38 120
e 38 124
e 38 129
e 38 131
e 38 132
e 38 134
e 38 135
e 38 136
e 38 141
e 38 142
e 38 144
e 38 145
e 38 146
e 38 149
e 39 40
e 39 42
e 39 45
e 39 47
e 39 48
e 39 51
e 39 52
e 39 53
e 39 54
e 39 55
e 39 57
e 39 58
e 39 59
e 39 66
e 39 69
e 39 70
e 39 72
e 39 75
e 39 76
e 39 77
e 39 78
e 39 79
e 39 83
e 39 87
e 39 89
e 39 92
e 39 94
e 39 98
e 39 100
e 39 102
e 39 106
e 39 108
e 39 112
e 39 113
e 39 118
e 39 123
e 39 125
e 39 126
e 39 127
e 39 128
e 39 131
e 39 132
e 39 133
e 39 135
e 39 137
e 39 138
e 39 139
e 39 143
e 39 148
e 39 150
e 40 42
e 40 43
e 40 47
e 40 48
e 40 58
e 40 61
e 40 62
e 40 63
e 40 64
e 40 66
e 40 68
e 40 69
e 40 77
e 40 78
e 40 79
e 40 81
e 40 87
e 40 92
e 40 93
e 40 96
e 40 97
e 40 98
e 40 99
e 40 102
e 40 103
e 40 106
e 40 107
e 40 110
e 40 114
e 40 115
e 40 116
e 40 117
e 40 119
e 40 122
e 40 123
e 40 124
e 40 133
e 40 137
e 40 138
e 40 140
e 40 141
e 40 144
e 40 145
e 40 146
e 40 147
e 40 148
e 40 149
e 41 42
e 41 43
e 41 45
e 41 46
e 41 47
e 41 50
e 41 56
e 41 58
e 41 61
e 41 62
e 41 64
e 41 70
e 41 71
e 41 72
e 41 73
e 41 79
e 41 83
e 41 86
e 41 95
e 41 99
e 41 100
e 41 103
e 41 104
e 41 105
e 41 109
e 41 113
e 41 116
e 41 117
e 41 124
e 41 127
e 41 132
e 41 133
e 41 134
e 41 135
e 41 137
e 41 138
e 41 140
e 41 141
e 41 142
e 41 144
e 41 145
e 41 146
e 42 44
e 42 45
e 42 46
e 42 48
e 42 49
e 42 50
e 42 51
e 42 53
e 42 54
e 42 55
e 42 56
e 42 57
e 42 58
e 42 62
e 42 64
e 42 65
e 42 68
e 42 69
e 42 70
e 42 74
e 42 77
e 42 79
e 42 80
e 42 81
e 42 82
e 42 93
e 42 99
e 42 101
e 42 106
e 42 107
e 42 108
e 42 109
e 42 110
e 42 111
e 42 113
e 42 114
e 42 115
e 42 124
e 42 128
e 42 129
e 42 131
e 42 132
e 42 134
e 42 137
e 42 142
e 42 143
e 42 148
e 43 45
e 43 50
e 43 51
e 43 52
e 43 54
e 43 56
e 43 57
e 43 61
e 43 63
e 43 64
e 43 67
e 43 70
e 43 77
e 43 79
e 43 80
e 43 83
e 43 85
e 43 87
e 43 90
e 43 95
e 43 98
e 43 104
e 43 105
e 43 107
e 43 108
e 43 117
e 43 118
e 43 121
e 43 125
e 43 130
e 43 135
e 43 137
e 43 140
e 43 141
e 43 146
e 43 147
e 44 46
e 44 47
e 44 51
e 44 56
e 44 57
e 44 59
e 44 61
e 44 63
e 44 67
e 44 70
e 44 72
e 44 73
e 44 75
e 44 76
e 44 79
e 44 81
e 44 82
e 44 83
e 44 84
e 44 85
e 44 86
e 44 91
e 44 95
e 44 97
e 44 98
e 44 100
e 44 101
e 44 102
e 44 105
e 44 106
e 44 108
e 44 109
e 44 110
e 44 112
e 44 113
e 44 114
e 44 116
e 44 117
e 44 121
e 44 123
e 44 128
e 44 129
e 44 131
e 44 132
e 44 133
e 44 134
e 44 135
e 44 138
e 44 145
e 44 148
e 44 149
e 44 150
e 45 47
e 45 48
e 45 49
e 45 50
e 45 51
e 45 52
e 45 63
e 45 64
e 45 66
e 45 70
e 45 71
e 45 73
e 45 74
e 45 75
e 45 76
e 45 78
e 45 83
e 45 84
e 45 85
e 45 86
e 45 87
e 45 90
e 45 91
e 45 93
e 45 96
e 45 108
e 45 109
e 45 111
e 45 115
e 45 116
e 45 117
e 45 119
e 45 122
e 45 123
e 45 124
e 45 125
e 45 128
e 45 130
e 45 131
e 45 135
e 45 138
e 45 140
e 45 144
e 45 148
e 45 149
e 45 150
e 46 49
e 46 50
e 46 51
e 46 56
e 46 60
e 46 64
e 46 67
e 46 68
e 46 69
e 46 71
e 46 72
e 46 77
e 46 79
e 46 80
e 46 82
e 46 83
e 46 84
e 46 91
e 46 92
e 46 95
e 46 96
e 46 98
e 46 100
e 46 101
e 46 104
e 46 106
e 46 107
e 46 109
e 46 112
e 46 113
e 46 114
e 46 122
e 46 124
e 46 125
e 46 128
e 46 131
e 46 133
e 46 134
e 46 137
e 46 138
e 46 143
e 46 145
e 46 146
e 46 147
e 46 149
e 47 53
e 47 56
e 47 57
e 47 60
e 47 61
e 47 62
e 47 68
e 47 69
e 47 70
e 47 71
e 47 72
e 47 83
e 47 84
e 47 85
e 47 86
e 47 88
e 47 92
e 47 94
e 47 101
e 47 105
e 47 106
e 47 109
e 47 110
e 47 117
e 47 118
e 47 124
e 47 127
e 47 134
e 47 135
e 47 136
e 47 139
e 47 144
e 47 147
e 47 150
e 48 52
e 48 54
e 48 55
e 48 56
e 48 57
e 48 62
e 48 63
e 48 64
e 48 66
e 48 69
e 48 71
e 48 73
e 48 77
e 48 83
e 48 84
e 48 85
e 48 86
e 48 87
e 48 95
e 48 100
e 48 103
e 48 105
e 48 110
e 48 113
e 48 114
e 48 115
e 48 117
e 48 119
e 48 122
e 48 125
e 48 128
e 48 133
e 48 134
e 48 138
e 48 140
e 48 142
e 48 144
e 48 146
e 48 147
e 48 148
e 48 149
e 49 51
e 49 52
e 49 54
e 49 55
e 49 62
e 49 63
e 49 64
e 49 66
e 49 67
e 49 68
e 49 73
e 49 74
e 49 78
e 49 80
e 49 82
e 49 86
e 49 87
e 49 88
e 49 90
e 49 91
e 49 93
e 49 95
e 49 97
e 49 98
e 49 99
e 49 100
e 49 107
e 49 108
e 49 109
e 49 110
e 49 111
e 49 117
e 49 119
e 49 121
e 49 125
e 49 127
e 49 130
e 49 135
e 49 138
e 49 142
e 49 144
e 49 147
e 49 150
e 50 61
e 50 62
e 50 64
e 50 65
e 50 67
e 50 74
e 50 76
e 50 77
e 50 79
e 50 80
e 50 81
e 50 82
e 50 84
e 50 85
e 50 87
e 50 88
e 50 89
e 50 90
e 50 93
e 50 95
e 50 97
e 50 101
e 50 109
e 50 112
e 50 113
e 50 118
e 50 119
e 50 120
e 50 121
e 50 122
e 50 125
e 50 128
e 50 132
e 50 135
e 50 136
e 50 137
e 50 138
e 50 139
e 50 141
e 50 147
e 50 148
e 50 149
e 51 53
e 51 55
e 51 57
e 51 59
e 51 63
e 51 66
e 51 71
e 51 72
e 51 73
e 51 76
e 51 78
e 51 79
e 51 80
e 51 81
e 51 86
e 51 87
e 51 88
e 51 89
e 51 91
e 51 93
e 51 106
e 51 108
e 51 110
e 51 112
e 51 113
e 51 120
e 51 121
e 51 123
e 51 124
e 51 126
e 51 130
e 51 132
e 51 133
e 51 138
e 51 144
e 51 148
e 52 53
e 52 54
e 52 56
e 52 58
e 52 61
e 52 62
e 52 63
e 52 64
e 52 65
e 52 70
e 52 71
e 52 72
e 52 73
e 52 76
e 52 77
e 52 80
e 52 84
e 52 85
e 52 87
e 52 89
e 52 93
e 52 96
e 52 97
e 52 98
e 52 101
e 52 103
e 52 104
e 52 106
e 52 107
e 52 108
e 52 109
e 52 111
e 52 113
e 52 120
e 52 122
e 52 126
e 52 127
e 52 129
e 52 133
e 52 135
e 52 138
e 52 141
e 52 142
e 52 144
e 52 147
e 53 55
e 53 56
e 53 57
e 53 60
e 53 61
e 53 64
e 53 68
e 53 70
e 53 75
e 53 77
e 53 78
e 53 83
e 53 84
e 53 86
e 53 87
e 53 88
e 53 89
e 53 93
e 53 94
e 53 95
e 53 96
e 53 97
e 53 98
e 53 100
e 53 101
e 53 104
e 53 107
e 53 109
e 53 110
e 53 115
e 53 120
e 53 124
e 53 128
e 53 129
e 53 130
e 53 131
e 53 132
e 53 134
e 53 135
e 53 137
e 53 138
e 53 139
e 53 140
e 53 141
e 53 142
e 53 145
e 53 146
e 53 147
e 53 149
e 53 150
e 54 57
e 54 60
e 54 62
e 54 63
e 54 64
e 54 65
e 54 67
e 54 70
e 54 71
e 54 72
e 54 75
e 54 79
e 54 82
e 54 84
e 54 85
e 54 88
e 54 91
e 54 92
e 54 94
e 54 95
e 54 99
e 54 100
e 54 104
e 54 105
e 54 106
e 54 109
e 54 113
e 54 114
e 54 119
e 54 121
e 54 122
e 54 124
e 54 125
e 54 126
e 54 130
e 54 131
e 54 133
e 54 134
e 54 136
e 54 138
e 54 139
e 54 142
e 54 146
e 54 147
e 54 149
e 54 150
e 55 58
e 55 62
e 55 69
e 55 76
e 55 80
e 55 81
e 55 86
e 55 91
e 55 93
e 55 97
e 55 98
e 55 100
e 55 105
e 55 109
e 55 112
e 55 125
e 55 128
e 55 131
e 55 134
e 55 138
e 55 139
e 55 143
e 55 150
e 56 57
e 56 58
e 56 59
e 56 62
e 56 64
e 56 67
e 56 71
e 56 74
e 56 76
e 56 80
e 56 85
e 56 89
e 56 93
e 56 100
e 56 102
e 56 104
e 56 105
e 56 106
e 56 107
e 56 108
e 56 110
e 56 112
e 56 115
e 56 117
e 56 121
e 56 124
e 56 126
e 56 127
e 56 129
e 56 130
e 56 131
e 56 134
e 56 136
e 56 140
e 56 141
e 56 144
e 56 147
e 56 149
e 57 60
e 57 61
e 57 65
e 57 66
e 57 72
e 57 74
e 57 75
e 57 77
e 57 79
e 57 81
e 57 85
e 57 88
e 57 89
e 57 92
e 57 93
e 57 96
e 57 98
e 57 101
e 57 102
e 57 105
e 57 110
e 57 112
e 57 114
e 57 117
e 57 126
e 57 127
e 57 129
e 57 132
e 57 133
e 57 135
e 57 136
e 57 137
e 57 139
e 57 140
e 57 141
e 57 145
e 57 146
e 58 60
e 58 61
e 58 62
e 58 63
e 58 65
e 58 68
e 58 72
e 58 75
e 58 81
e 58 85
e 58 86
e 58 88
e 58 95
e 58 97
e 58 98
e 58 99
e 58 100
e 58 101
e 58 103
e 58 105
e 58 111
e 58 112
e 58 113
e 58 114
e 58 117
e 58 122
e 58 125
e 58 129
e 58 134
e 58 140
e 58 143
e 58 145
e 58 150
e 59 60
e 59 63
e 59 65
e 59 69
e 59 70
e 59 75
e 59 77
e 59 78
e 59 84
e 59 85
e 59 86
e 59 89
e 59 91
e 59 93
e 59 96
e 59 98
e 59 99
e 59 101
e 59 102
e 59 103
e 59 107
e 59 108
e 59 110
e 59 111
e 59 116
e 59 118
e 59 120
e 59 121
e 59 127
e 59 128
e 59 130
e 59 132
e 59 133
e 59 135
e 59 137
e 59 138
e 59 139
e 59 141
e 59 143
e 59 147
e 59 149
e 60 63
e 60 64
e 60 67
e 60 68
e 60 71
e 60 72
e 60 73
e 60 74
e 60 77
e 60 84
e 60 92
e 60 93
e 60 95
e 60 96
e 60 97
e 60 106
e 60 109
e 60 110
e 60 115
e 60 117
e 60 119
e 60 122
e 60 123
e 60 128
e 60 129
e 60 134
e 60 139
e 60 142
e 60 143
e 60 145
e 60 147
e 60 148
e 61 62
e 61 66
e 61 67
e 61 69
e 61 71
e 61 74
e 61 76
e 61 77
e 61 80
e 61 84
e 61 89
e 61 92
e 61 94
e 61 96
e 61 99
e 61 101
e 61 103
e 61 106
e 61 108
e 61 109
e 61 113
e 61 119
e 61 120
e 61 122
e 61 126
e 61 128
e 61 129
e 61 133
e 61 135
e 61 136
e 61 138
e 61 142
e 61 143
e 61 144
e 61 149
e 61 150
e 62 64
e 62 65
e 62 67
e 62 69
e 62 70
e 62 71
e 62 72
e 62 73
e 62 76
e 62 77
e 62 82
e 62 84
e 62 87
e 62 88
e 62 89
e 62 90
e 62 91
e 62 92
e 62 93
e 62 94
e 62 96
e 62 97
e 62 98
e 62 99
e 62 100
e 62 102
e 62 104
e 62 105
e 62 109
e 62 110
e 62 111
e 62 116
e 62 119
e 62 122
e 62 124
e 62 127
e 62 129
e 62 131
e 62 132
e 62 134
e 62 135
e 62 136
e 62 139
e 62 140
e 62 144
e 62 145
e 63 69
e 63 70
e 63 71
e 63 73
e 63 75
e 63 76
e 63 79
e 63 85
e 63 86
e 63 88
e 63 89
e 63 97
e 63 98
e 63 99
e 63 100
e 63 103
e 63 104
e 63 105
e 63 108
e 63 109
e 63 111
e 63 112
e 63 113
e 63 114
e 63 116
e 63 118
e 63 122
e 63 125
e 63 127
e 63 128
e 63 129
e 63 130
e 63 134
e 63 135
e 63 139
e 63 140
e 63 144
e 63 145
e 63 146
e 63 150
e 64 65
e 64 66
e 64 68
e 64 70
e 64 71
e 64 72
e 64 78
e 64 80
e 64 85
e 64 86
e 64 87
e 64 92
e 64 93
e 64 95
e 64 103
e 64 104
e 64 105
e 64 114
e 64 116
e 64 117
e 64 118
e 64 121
e 64 123
e 64 124
e 64 129
e 64 143
e 64 145
e 65 66
e 65 67
e 65 70
e 65 73
e 65 74
e 65 75
e 65 77
e 65 78
e 65 80
e 65 86
e 65 88
e 65 90
e 65 92
e 65 94
e 65 99
e 65 103
e 65 105
e 65 107
e 65 108
e 65 111
e 65 113
e 65 115
e 65 120
e 65 122
e 65 123
e 65 126
e 65 127
e 65 128
e 65 129
e 65 130
e 65 132
e 65 136
e 65 137
e 65 143
e 65 147
e 65 148
e 65 149
e 65 150
e 66 67
e 66 69
e 66 72
e 66 80
e 66 84
e 66 86
e 66 87
e 66 88
e 66 91
e 66 93
e 66 94
e 66 95
e 66 96
e 66 97
e 66 99
e 66 101
e 66 102
e 66 106
e 66 107
e 66 108
e 66 110
e 66 116
e 66 117
e 66 119
e 66 128
e 66 129
e 66 131
e 66 132
e 66 135
e 66 139
e 66 142
e 66 143
e 66 145
e 66 147
e 66 148
e 67 68
e 67 69
e 67 70
e 67 76
e 67 78
e 67 84
e 67 86
e 67 88
e 67 90
e 67 91
e 67 93
e 67 94
e 67 96
e 67 97
e 67 100
e 67 105
e 67 106
e 67 107
e 67 108
e 67 109
e 67 111
e 67 115
e 67 118
e 67 120
e 67 123
e 67 128
e 67 130
e 67 132
e 67 134
e 67 136
e 67 137
e 67 145
e 67 147
e 67 149
e 67 150
e 68 71
e 68 72
e 68 73
e 68 74
e 68 75
e 68 77
e 68 78
e 68 86
e 68 87
e 68 88
e 68 91
e 68 92
e 68 95
e 68 96
e 68 97
e 68 99
e 68 100
e 68 101
e 68 105
e 68 106
e 68 108
e 68 111
e 68 115
e 68 116
e 68 117
e 68 119
e 68 120
e 68 123
e 68 125
e 68 126
e 68 128
e 68 133
e 68 138
e 68 143
e 68 144
e 68 145
e 68 149
e 68 150
e 69 73
e 69 75
e 69 78
e 69 80
e 69 82
e 69 83
e 69 84
e 69 86
e 69 87
e 69 88
e 69 91
e 69 94
e 69 95
e 69 96
e 69 97
e 69 98
e 69 101
e 69 102
e 69 103
e 69 111
e 69 114
e 69 115
e 69 116
e 69 117
e 69 118
e 69 122
e 69 124
e 69 125
e 69 126
e 69 128
e 69 130
e 69 132
e 69 135
e 69 136
e 69 137
e 69 138
e 69 140
e 69 141
e 69 144
e 69 147
e 69 148
e 69 150
e 70 71
e 70 73
e 70 74
e 70 77
e 70 78
e 70 80
e 70 81
e 70 84
e 70 93
e 70 99
e 70 102
e 70 105
e 70 107
e 70 108
e 70 109
e 70 113
e 70 115
e 70 116
e 70 117
e 70 124
e 70 126
e 70 128
e 70 129
e 70 132
e 70 133
e 70 138
e 70 140
e 70 144
e 70 147
e 70 149
e 71 73
e 71 77
e 71 79
e 71 81
e 71 82
e 71 85
e 71 87
e 71 91
e 71 93
e 71 94
e 71 100
e 71 104
e 71 106
e 71 108
e 71 110
e 71 111
e 71 112
e 71 113
e 71 118
e 71 119
e 71 121
e 71 122
e 71 126
e 71 131
e 71 135
e 71 136
e 71 137
e 71 139
e 71 140
e 71 141
e 71 142
e 71 144
e 71 145
e 71 146
e 71 148
e 71 150
e 72 74
e 72 75
e 72 76
e 72 78
e 72 79
e 72 80
e 72 85
e 72 86
e 72 87
e 72 88
e 72 95
e 72 99
e 72 107
e 72 109
e 72 110
e 72 111
e 72 114
e 72 116
e 72 117
e 72 118
e 72 119
e 72 121
e 72 122
e 72 124
e 72 127
e 72 131
e 72 132
e 72 135
e 72 136
e 72 141
e 72 142
e 72 146
e 72 149
e 73 76
e 73 78
e 73 80
e 73 84
e 73 85
e 73 91
e 73 93
e 73 96
e 73 104
e 73 105
e 73 107
e 73 111
e 73 112
e 73 114
e 73 116
e 73 117
e 73 118
e 73 119
e 73 122
e 73 123
e 73 124
e 73 125
e 73 127
e 73 134
e 73 136
e 73 141
e 73 142
e 73 144
e 73 145
e 73 147
e 73 149
e 74 76
e 74 88
e 74 97
e 74 99
e 74 102
e 74 103
e 74 104
e 74 105
e 74 108
e 74 111
e 74 113
e 74 115
e 74 118
e 74 120
e 74 121
e 74 123
e 74 127
e 74 130
e 74 131
e 74 133
e 74 137
e 74 144
e 74 148
e 74 150
e 75 77
e 75 79
e 75 83
e 75 90
e 75 92
e 75 93
e 75 96
e 75 98
e 75 100
e 75 101
e 75 102
e 75 103
e 75 104
e 75 105
e 75 108
e 75 110
e 75 111
e 75 112
e 75 114
e 75 115
e 75 116
e 75 118
e 75 122
e 75 123
e 75 124
e 75 127
e 75 128
e 75 129
e 75 132
e 75 133
e 75 137
e 75 141
e 75 144
e 75 149
e 76 78
e 76 79
e 76 84
e 76 89
e 76 92
e 76 95
e 76 98
e 76 100
e 76 102
e 76 103
e 76 104
e 76 107
e 76 108
e 76 109
e 76 111
e 76 112
e 76 117
e 76 119
e 76 120
e 76 121
e 76 122
e 76 123
e 76 126
e 76 129
e 76 130
e 76 134
e 76 136
e 76 138
e 76 140
e 76 142
e 76 145
e 76 146
e 77 79
e 77 85
e 77 86
e 77 90
e 77 97
e 77 99
e 77 100
e 77 101
e 77 108
e 77 112
e 77 117
e 77 122
e 77 123
e 77 124
e 77 125
e 77 126
e 77 132
e 77 133
e 77 136
e 77 138
e 77 142
e 77 143
e 77 144
e 77 149
e 77 150
e 78 79
e 78 80
e 78 81
e 78 82
e 78 86
e 78 91
e 78 94
e 78 99
e 78 100
e 78 103
e 78 105
e 78 109
e 78 111
e 78 113
e 78 114
e 78 116
e 78 117
e 78 119
e 78 120
e 78 121
e 78 122
e 78 123
e 78 124
e 78 126
e 78 127
e 78 129
e 78 130
e 78 131
e 78 132
e 78 136
e 78 138
e 78 140
e 78 142
e 78 149
e 79 84
e 79 85
e 79 86
e 79 91
e 79 95
e 79 97
e 79 105
e 79 106
e 79 108
e 79 114
e 79 116
e 79 120
e 79 122
e 79 123
e 79 126
e 79 129
e 79 130
e 79 137
e 79 138
e 79 140
e 79 145
e 79 147
e 80 81
e 80 82
e 80 85
e 80 86
e 80 91
e 80 95
e 80 96
e 80 98
e 80 100
e 80 104
e 80 109
e 80 111
e 80 113
e 80 115
e 80 116
e 80 119
e 80 120
e 80 122
e 80 124
e 80 125
e 80 128
e 80 129
e 80 132
e 80 133
e 80 135
e 80 142
e 80 146
e 80 149
e 81 85
e 81 86
e 81 87
e 81 93
e 81 94
e 81 95
e 81 98
e 81 102
e 81 103
e 81 107
e 81 108
e 81 109
e 81 111
e 81 112
e 81 113
e 81 120
e 81 129
e 81 132
e 81 137
e 81 138
e 81 141
e 81 142
e 81 144
e 81 148
e 81 149
e 82 85
e 82 86
e 82 87
e 82 89
e 82 90
e 82 91
e 82 92
e 82 93
e 82 96
e 82 101
e 82 104
e 82 108
e 82 109
e 82 111
e 82 112
e 82 116
e 82 117
e 82 121
e 82 123
e 82 125
e 82 126
e 82 128
e 82 129
e 82 131
e 82 133
e 82 136
e 82 137
e 82 138
e 82 140
e 82 147
e 82 148
e 83 85
e 83 87
e 83 88
e 83 89
e 83 90
e 83 92
e 83 95
e 83 97
e 83 99
e 83 102
e 83 104
e 83 107
e 83 110
e 83 111
e 83 113
e 83 114
e 83 116
e 83 117
e 83 118
e 83 120
e 83 121
e 83 123
e 83 124
e 83 126
e 83 129
e 83 130
e 83 131
e 83 133
e 83 134
e 83 136
e 83 139
e 83 140
e 83 141
e 83 144
e 83 147
e 84 86
e 84 88
e 84 91
e 84 92
e 84 95
e 84 98
e 84 101
e 84 102
e 84 104
e 84 105
e 84 107
e 84 109
e 84 111
e 84 112
e 84 113
e 84 116
e 84 118
e 84 121
e 84 128
e 84 130
e 84 131
e 84 132
e 84 133
e 84 134
e 84 135
e 84 136
e 84 139
e 84 141
e 84 142
e 84 147
e 84 148
e 84 149
e 84 150
e 85 86
e 85 90
e 85 91
e 85 94
e 85 95
e 85 104
e 85 107
e 85 108
e 85 110
e 85 112
e 85 113
e 85 114
e 85 121
e 85 122
e 85 123
e 85 124
e 85 125
e 85 126
e 85 129
e 85 132
e 85 133
e 85 137
e 85 138
e 85 139
e 85 141
e 85 143
e 85 147
e 86 89
e 86 98
e 86 101
e 86 103
e 86 106
e 86 107
e 86 108
e 86 109
e 86 110
e 86 112
e 86 113
e 86 114
e 86 115
e 86 119
e 86 120
e 86 122
e 86 126
e 86 130
e 86 132
e 86 133
e 86 136
e 86 138
e 86 140
e 86 143
e 86 145
e 86 148
e 86 149
e 87 88
e 87 89
e 87 91
e 87 93
e 87 98
e 87 100
e 87 102
e 87 103
e 87 106
e 87 110
e 87 111
e 87 114
e 87 115
e 87 116
e 87 117
e 87 118
e 87 125
e 87 132
e 87 133
e 87 134
e 87 135
e 87 137
e 87 138
e 87 139
e 87 141
e 87 142
e 87 143
e 87 144
e 87 147
e 87 149
e 88 93
e 88 94
e 88 95
e 88 107
e 88 112
e 88 117
e 88 118
e 88 120
e 88 122
e 88 123
e 88 126
e 88 127
e 88 130
e 88 131
e 88 132
e 88 134
e 88 137
e 88 139
e 88 140
e 88 141
e 88 142
e 88 144
e 88 145
e 88 146
e 88 150
e 89 93
e 89 99
e 89 100
e 89 102
e 89 106
e 89 107
e 89 108
e 89 109
e 89 110
e 89 116
e 89 118
e 89 125
e 89 130
e 89 131
e 89 132
e 89 133
e 89 134
e 89 136
e 89 142
e 89 148
e 89 149
e 89 150
e 90 92
e 90 93
e 90 101
e 90 102
e 90 104
e 90 105
e 90 109
e 90 113
e 90 117
e 90 123
e 90 124
e 90 125
e 90 127
e 90 130
e 90 131
e 90 134
e 90 138
e 90 139
e 90 140
e 90 144
e 90 146
e 90 150
e 91 92
e 91 94
e 91 97
e 91 100
e 91 103
e 91 104
e 91 106
e 91 110
e 91 111
e 91 118
e 91 119
e 91 121
e 91 124
e 91 125
e 91 127
e 91 128
e 91 133
e 91 135
e 91 138
e 91 140
e 91 141
e 91 142
e 91 144
e 91 145
e 91 147
e 91 150
e 92 96
e 92 99
e 92 100
e 92 101
e 92 107
e 92 108
e 92 109
e 92 110
e 92 111
e 92 113
e 92 115
e 92 116
e 92 117
e 92 118
e 92 122
e 92 123
e 92 124
e 92 126
e 92 128
e 92 130
e 92 132
e 92 133
e 92 137
e 92 142
e 92 143
e 92 147
e 92 148
e 92 150
e 93 95
e 93 98
e 93 103
e 93 104
e 93 107
e 93 110
e 93 111
e 93 113
e 93 115
e 93 116
e 93 118
e 93 121
e 93 123
e 93 124
e 93 125
e 93 127
e 93 128
e 93 130
e 93 131
e 93 134
e 93 135
e 93 141
e 93 144
e 93 146
e 93 147
e 93 149
e 93 150
e 94 95
e 94 100
e 94 103
e 94 104
e 94 107
e 94 111
e 94 113
e 94 114
e 94 115
e 94 116
e 94 117
e 94 118
e 94 119
e 94 123
e 94 124
e 94 125
e 94 128
e 94 132
e 94 133
e 94 134
e 94 137
e 94 138
e 94 141
e 94 142
e 94 146
e 94 147
e 94 148
e 94 149
e 95 96
e 95 97
e 95 98
e 95 108
e 95 109
e 95 110
e 95 112
e 95 118
e 95 120
e 95 122
e 95 124
e 95 126
e 95 128
e 95 129
e 95 130
e 95 131
e 95 132
e 95 135
e 95 137
e 95 141
e 95 142
e 95 143
e 95 148
e 96 99
e 96 100
e 96 103
e 96 104
e 96 107
e 96 110
e 96 111
e 96 113
e 96 115
e 96 116
e 96 117
e 96 118
e 96 121
e 96 123
e 96 129
e 96 131
e 96 134
e 96 136
e 96 138
e 96 143
e 96 144
e 96 146
e 96 147
e 96 148
e 96 149
e 97 98
e 97 99
e 97 101
e 97 102
e 97 103
e 97 104
e 97 106
e 97 107
e 97 109
e 97 112
e 97 115
e 97 117
e 97 119
e 97 120
e 97 121
e 97 124
e 97 126
e 97 130
e 97 131
e 97 133
e 97 134
e 97 135
e 97 138
e 97 141
e 97 145
e 97 147
e 97 150
e 98 101
e 98 102
e 98 104
e 98 115
e 98 116
e 98 120
e 98 122
e 98 123
e 98 126
e 98 127
e 98 131
e 98 132
e 98 133
e 98 136
e 98 138
e 98 139
e 98 142
e 98 145
e 98 148
e 99 101
e 99 102
e 99 107
e 99 110
e 99 111
e 99 113
e 99 114
e 99 115
e 99 119
e 99 121
e 99 122
e 99 124
e 99 127
e 99 128
e 99 132
e 99 133
e 99 134
e 99 135
e 99 137
e 99 138
e 99 141
e 99 143
e 99 144
e 99 146
e 99 148
e 99 150
e 100 103
e 100 106
e 100 107
e 100 110
e 100 111
e 100 117
e 100 119
e 100 127
e 100 129
e 100 131
e 100 133
e 100 135
e 100 136
e 100 140
e 100 141
e 100 143
e 100 145
e 100 146
e 101 104
e 101 107
e 101 112
e 101 116
e 101 118
e 101 119
e 101 121
e 101 125
e 101 127
e 101 128
e 101 129
e 101 131
e 101 138
e 101 143
e 101 144
e 101 146
e 101 149
e 101 150
e 102 105
e 102 106
e 102 112
e 102 113
e 102 117
e 102 120
e 102 121
e 102 122
e 102 125
e 102 128
e 102 129
e 102 132
e 102 134
e 102 135
e 102 138
e 102 139
e 102 141
e 102 142
e 102 146
e 102 149
e 103 106
e 103 107
e 103 113
e 103 115
e 103 117
e 103 123
e 103 124
e 103 133
e 103 134
e 103 136
e 103 140
e 103 141
e 103 145
e 103 147
e 103 148
e 103 150
e 104 106
e 104 108
e 104 111
e 104 113
e 104 114
e 104 117
e 104 119
e 104 121
e 104 122
e 104 134
e 104 136
e 104 141
e 104 145
e 104 146
e 104 149
e 105 106
e 105 109
e 105 111
e 105 115
e 105 118
e 105 120
e 105 121
e 105 122
e 105 123
e 105 124
e 105 129
e 105 130
e 105 140
e 105 142
e 105 143
e 105 145
e 105 146
e 106 107
e 106 109
e 106 111
e 106 113
e 106 115
e 106 117
e 106 118
e 106 122
e 106 124
e 106 125
e 106 132
e 106 135
e 106 136
e 106 145
e 106 147
e 106 149
e 106 150
e 107 108
e 107 110
e 107 112
e 107 113
e 107 119
e 107 120
e 107 126
e 107 132
e 107 133
e 107 136
e 107 144
e 107 145
e 107 148
e 108 109
e 108 113
e 108 114
e 108 116
e 108 118
e 108 119
e 108 120
e 108 121
e 108 122
e 108 125
e 108 128
e 108 129
e 108 131
e 108 138
e 108 139
e 108 143
e 108 146
e 108 148
e 109 110
e 109 115
e 109 123
e 109 124
e 109 125
e 109 128
e 109 133
e 109 134
e 109 136
e 109 139
e 109 140
e 109 141
e 109 142
e 109 146
e 110 117
e 110 121
e 110 124
e 110 136
e 110 138
e 110 141
e 110 144
e 110 148
e 110 149
e 111 114
e 111 115
e 111 116
e 111 125
e 111 126
e 111 127
e 111 128
e 111 135
e 111 136
e 111 137
e 111 139
e 111 140
e 111 142
e 111 144
e 112 115
e 112 117
e 112 122
e 112 126
e 112 127
e 112 128
e 112 129
e 112 133
e 112 137
e 112 138
e 112 139
e 112 140
e 112 147
e 112 148
e 112 149
e 113 115
e 113 123
e 113 125
e 113 131
e 113 133
e 113 135
e 113 136
e 113 137
e 113 138
e 113 140
e 113 142
e 113 146
e 113 147
e 113 148
e 114 120
e 114 122
e 114 123
e 114 124
e 114 127
e 114 128
e 114 134
e 114 136
e 114 138
e 114 139
e 114 141
e 114 144
e 114 146
e 115 116
e 115 117
e 115 119
e 115 121
e 115 126
e 115 127
e 115 135
e 115 136
e 115 138
e 115 140
e 115 142
e 115 145
e 115 147
e 115 149
e 115 150
e 116 117
e 116 124
e 116 125
e 116 127
e 116 129
e 116 131
e 116 132
e 116 135
e 116 136
e 116 137
e 116 138
e 116 140
e 116 141
e 116 145
e 116 147
e 116 149
e 117 118
e 117 123
e 117 124
e 117 126
e 117 131
e 117 132
e 117 139
e 117 142
e 117 143
e 117 144
e 117 147
e 117 150
e 118 119
e 118 120
e 118 123
e 118 126
e 118 128
e 118 131
e 118 133
e 118 136
e 118 137
e 118 140
e 118 141
e 118 142
e 118 143
e 118 144
e 118 146
e 118 147
e 119 120
e 119 128
e 119 129
e 119 131
e 119 132
e 119 135
e 119 139
e 119 142
e 119 143
e 119 144
e 119 145
e 119 146
e 120 126
e 120 132
e 120 136
e 120 138
e 120 140
e 120 143
e 120 145
e 120 147
e 120 148
e 120 149
e 120 150
e 121 124
e 121 125
e 121 126
e 121 133
e 121 135
e 121 136
e 121 137
e 121 139
e 121 140
e 121 142
e 121 143
e 121 146
e 121 149
e 122 123
e 122 124
e 122 127
e 122 128
e 122 132
e 122 135
e 122 136
e 122 137
e 122 138
e 122 140
e 122 144
e 122 147
e 122 149
e 122 150
e 123 128
e 123 129
e 123 130
e 123 131
e 123 139
e 123 140
e 123 141
e 123 143
e 123 144
e 123 149
e 123 150
e 124 128
e 124 129
e 124 131
e 124 133
e 124 141
e 124 144
e 125 128
e 125 134
e 125 135
e 125 137
e 125 138
e 125 140
e 125 144
e 126 128
e 126 129
e 126 131
e 126 135
e 126 139
e 126 142
e 126 143
e 126 145
e 126 146
e 126 148
e 126 149
e 126 150
e 127 129
e 127 130
e 127 131
e 127 132
e 127 133
e 127 134
e 127 148
e 128 129
e 128 130
e 128 133
e 128 135
e 128 136
e 128 138
e 128 139
e 128 141
e 128 142
e 128 150
e 129 131
e 129 135
e 129 136
e 129 143
e 129 147
e 129 148
e 130 135
e 130 137
e 130 139
e 130 141
e 130 142
e 130 144
e 130 146
e 130 150
e 131 133
e 131 135
e 131 136
e 131 137
e 131 138
e 131 140
e 131 142
e 131 143
e 131 144
e 131 147
e 131 148
e 132 133
e 132 134
e 132 137
e 132 145
e 132 146
e 132 150
e 133 134
e 133 138
e 133 139
e 133 140
e 133 143
e 133 145
e 133 149
e 133 150
e 134 136
e 134 137
e 134 138
e 134 141
e 134 143
e 134 150
e 135 137
e 135 140
e 136 137
e 136 141
e 136 144
e 136 149
e 136 150
e 137 138
e 137 139
e 137 141
e 137 142
e 137 143
e 137 145
e 137 146
e 137 148
e 137 149
e 137 150
e 138 142
e 138 145
e 139 145
e 139 148
e 139 150
e 140 141
e 140 142
e 140 145
e 140 146
e 141 143
e 141 149
e 142 143
e 142 149
e 143 149
e 143 150
e 144 146
e 144 147
e 145 150
e 146 148
e 146 149
e 147 148
e 147 150
e 148 149
e 148 150
